************************************************************************
file with basedata            : md332_.bas
initial value random generator: 2138151372
************************************************************************
projects                      :  1
jobs (incl. supersource/sink ):  22
horizon                       :  160
RESOURCES
  - renewable                 :  2   R
  - nonrenewable              :  2   N
  - doubly constrained        :  0   D
************************************************************************
PROJECT INFORMATION:
pronr.  #jobs rel.date duedate tardcost  MPM-Time
    1     20      0       34        6       34
************************************************************************
PRECEDENCE RELATIONS:
jobnr.    #modes  #successors   successors
   1        1          3           2   3   4
   2        3          3           5  13  17
   3        3          3           7   9  15
   4        3          3           6   8  14
   5        3          3          14  16  19
   6        3          3           9  11  12
   7        3          1          10
   8        3          3          10  11  12
   9        3          1          18
  10        3          1          17
  11        3          3          13  15  19
  12        3          1          13
  13        3          1          16
  14        3          2          15  20
  15        3          1          18
  16        3          2          20  21
  17        3          2          19  21
  18        3          1          21
  19        3          1          22
  20        3          1          22
  21        3          1          22
  22        1          0        
************************************************************************
REQUESTS/DURATIONS:
jobnr. mode duration  R 1  R 2  N 1  N 2
------------------------------------------------------------------------
  1      1     0       0    0    0    0
  2      1     2       7    0    2    0
         2     8       6    0    2    0
         3     9       5    0    1    0
  3      1     6       0    8    0    5
         2     6       2    0    0    4
         3     9       0    8    2    0
  4      1     2       0    5    0   10
         2     4      10    0    0   10
         3     5       9    0    0    9
  5      1     1       0    9    0    4
         2     2       8    0    0    3
         3     9       0    8    0    2
  6      1     8       0    7    0    3
         2     8       0    7    1    0
         3     9       0    4    1    0
  7      1     5       3    0    0    7
         2     6       1    0    0    6
         3     7       0    2    0    5
  8      1     2       6    0    9    0
         2     3       0   10    9    0
         3     5       0    7    9    0
  9      1     4       9    0    5    0
         2    10       0    4    3    0
         3    10       7    0    3    0
 10      1     1       4    0    9    0
         2     2       0    9    6    0
         3     6       0    8    3    0
 11      1     2       0    7    0   10
         2     4       0    6    3    0
         3     5       0    6    0   10
 12      1     6       0   10    0    2
         2     8       0    9    0    2
         3     8       3    0    0    2
 13      1     6       0    6    0    7
         2     8       8    0    3    0
         3     8       0    3    0    7
 14      1     1       7    0    0    4
         2     7       7    0    0    2
         3    10       7    0    4    0
 15      1     1       3    0    0    8
         2     6       0    2    0    7
         3     7       3    0    0    5
 16      1     5       0    3    9    0
         2     8       6    0    8    0
         3     9       0    1    0    6
 17      1     4       0    4    0    7
         2     4       8    0    0    8
         3     7       7    0    0    6
 18      1     4      10    0    8    0
         2     5       9    0    0    4
         3     9       8    0    0    3
 19      1     4       0    7    0    9
         2     5       0    5    6    0
         3     9       5    0    0    8
 20      1     4       6    0    0    2
         2     4       0    5    7    0
         3     9       7    0    5    0
 21      1     7       5    0    7    0
         2     9       0    6    0    9
         3    10       3    0    6    0
 22      1     0       0    0    0    0
************************************************************************
RESOURCEAVAILABILITIES:
  R 1  R 2  N 1  N 2
   23   34   46   64
************************************************************************
MAXIMAL LAGS:
from  to  type  delay
    1   22   ES      0
    1    2   ES      0
    2   22   ES      0
    1    3   ES      0
    3   22   ES      0
    1    4   ES      0
    4   22   ES      0
    1    5   ES      0
    5   22   ES      0
    1    6   ES      0
    6   22   ES      0
    1    7   ES      0
    7   22   ES      0
    1    8   ES      0
    8   22   ES      0
    1    9   ES      0
    9   22   ES      0
    1   10   ES      0
   10   22   ES      0
    1   11   ES      0
   11   22   ES      0
    1   12   ES      0
   12   22   ES      0
    1   13   ES      0
   13   22   ES      0
    1   14   ES      0
   14   22   ES      0
    1   15   ES      0
   15   22   ES      0
    1   16   ES      0
   16   22   ES      0
    1   17   ES      0
   17   22   ES      0
    1   18   ES      0
   18   22   ES      0
    1   19   ES      0
   19   22   ES      0
    1   20   ES      0
   20   22   ES      0
    1   21   ES      0
   21   22   ES      0
    1   22   ES      0
    2    5   SS     -5
    2    5   SE      5
    2    5   ES     -6
    2    5   EE     12
    2   13   SS     12
    2   13   SE    -11
    2   13   ES     -8
    2   13   EE      4
    2   17   SS     -3
    2   17   SE     -5
    2   17   ES     11
    2   17   EE      6
    3    7   SS     -2
    3    7   SE      6
    3    7   ES      7
    3    7   EE     12
    3    9   SS      9
    3    9   SE     -2
    3    9   ES     -5
    3    9   EE     -3
    3   15   SS     -8
    3   15   SE      9
    3   15   ES      4
    3   15   EE     -5
    4    6   SS      1
    4    6   SE     -3
    4    6   ES     -4
    4    6   EE    -11
    4    8   SS      5
    4    8   SE      6
    4    8   ES     11
    4    8   EE     -7
    4   14   SS      8
    4   14   SE      9
    4   14   ES      1
    4   14   EE      5
    5   14   SS      3
    5   14   SE    -11
    5   14   ES     -1
    5   14   EE      8
    5   16   SS      9
    5   16   SE      0
    5   16   ES      4
    5   16   EE     -2
    5   19   SS     10
    5   19   SE      1
    5   19   ES      1
    5   19   EE     -8
    6    9   SS     -3
    6    9   SE      0
    6    9   ES     -7
    6    9   EE     12
    6   11   SS      5
    6   11   SE      3
    6   11   ES     -5
    6   11   EE     -5
    6   12   SS     -3
    6   12   SE     10
    6   12   ES     -8
    6   12   EE      2
    7   10   SS    -11
    7   10   SE      5
    7   10   ES      1
    7   10   EE      1
    8   10   SS      5
    8   10   SE      4
    8   10   ES     -8
    8   10   EE      0
    8   11   SS     -5
    8   11   SE     -4
    8   11   ES     -6
    8   11   EE     -2
    8   12   SS      8
    8   12   SE    -10
    8   12   ES      2
    8   12   EE     -1
    9   18   SS    -10
    9   18   SE      5
    9   18   ES     11
    9   18   EE     -6
   10   17   SS    -11
   10   17   SE     -4
   17   10   SE      0
   10   17   ES      0
   10   17   EE      9
   11   13   SS      7
   11   13   SE      7
   11   13   ES    -11
   11   13   EE    -10
   11   15   SS     -6
   11   15   SE     12
   11   15   ES      6
   11   15   EE     11
   11   19   SS      9
   11   19   SE      5
   11   19   ES     -6
   11   19   EE      3
   12   13   SS     -6
   12   13   SE     -2
   12   13   ES     -3
   12   13   EE    -12
   13   16   SS     -6
   13   16   SE     -6
   13   16   ES     11
   13   16   EE     -9
   14   15   SS     11
   14   15   SE     12
   14   15   ES      3
   14   15   EE     -5
   14   20   SS     10
   14   20   SE      7
   14   20   ES     10
   14   20   EE     -6
   15   18   SS      0
   15   18   SE     -5
   15   18   ES      5
   15   18   EE     -2
   16   20   SS     12
   16   20   SE     -3
   16   20   ES      0
   16   20   EE      2
   16   21   SS      5
   16   21   SE      8
   16   21   ES     -1
   16   21   EE     -3
   17   19   SS     -4
   17   19   SE     -1
   17   19   ES      4
   17   19   EE      3
   17   21   SS      2
   17   21   SE     -9
   17   21   ES     11
   17   21   EE      3
   18   21   SS     12
   18   21   SE     -2
   18   21   ES     -6
   18   21   EE     -1
************************************************************************
